
Gurobi 9.1.2 (linux64) logging started Wed Dec  1 09:16:23 2021

Changed value of parameter LogFile to lemke_square_v-(1, 5)-s20-l10.log
   Prev:   Default: 
Changed value of parameter Threads to 32
   Prev: 0  Min: 0  Max: 1024  Default: 0
Warning: variable name "X[(7, 4),(7, 3)]" has a space
Warning: constraint name "flow-constr-t0-v(3, 0)" has a space
Warning: to let Gurobi read it back, use rlp format
Gurobi Optimizer version 9.1.2 build v9.1.2rc0 (linux64)
Thread count: 16 physical cores, 32 logical processors, using up to 32 threads
Optimize a model with 6053 rows, 5440 columns and 20770 nonzeros
Model fingerprint: 0x176f956b
Variable types: 0 continuous, 5440 integer (4800 binary)
Coefficient statistics:
  Matrix range     [1e+00, 1e+03]
  Objective range  [1e-01, 1e-01]
  Bounds range     [1e+00, 5e+02]
  RHS range        [1e+00, 1e+03]
Presolve removed 357 rows and 370 columns
Presolve time: 0.05s
Presolved: 5696 rows, 5070 columns, 18990 nonzeros
Variable types: 0 continuous, 5070 integer (4430 binary)

Root relaxation: objective 6.400000e+01, 129 iterations, 0.00 seconds

    Nodes    |    Current Node    |     Objective Bounds      |     Work
 Expl Unexpl |  Obj  Depth IntInf | Incumbent    BestBd   Gap | It/Node Time

     0     0   64.00000    0   42          -   64.00000      -     -    0s
     0     0   64.00000    0   74          -   64.00000      -     -    0s
     0     0   64.00000    0   74          -   64.00000      -     -    0s
     0     0   64.00000    0   48          -   64.00000      -     -    0s
     0     0   64.00000    0   48          -   64.00000      -     -    0s
H    0     0                    2654.0000000   64.00000  97.6%     -    0s
     0     0   64.00000    0   48 2654.00000   64.00000  97.6%     -    0s
H    0     0                     118.4000000   64.00000  45.9%     -    0s
     0     2   64.00000    0   44  118.40000   64.00000  45.9%     -    0s
H   31    64                     118.2000000   64.00000  45.9%  57.4    1s
H   32    64                     112.8000000   64.00000  43.3%  57.6    1s
H   36    64                     110.2000000   64.00000  41.9%  57.2    1s
H   63    96                     109.4000000   64.00000  41.5%  55.1    2s
H   64    96                     108.8000000   64.00000  41.2%  54.7    2s
H   65    96                     105.8000000   64.00000  39.5%  54.5    2s
H   68    96                      97.7000000   64.00000  34.5%  53.8    2s
H   95   128                      95.1000000   64.00000  32.7%  48.4    3s
H   97   128                      93.9000000   64.00000  31.8%  47.9    3s
H  100   128                      90.9000000   64.00000  29.6%  47.5    3s
H  103   128                      89.8000000   64.00000  28.7%  46.5    3s
H  126   128                      89.5000000   64.00000  28.5%  38.5    3s
H  397   492                      86.4000000   64.00000  25.9%  76.3    4s
   491  1976   64.00000   14   62   86.40000   64.00000  25.9%  65.0    5s
H 6909  8101                      84.0000000   64.00000  23.8%  12.0    6s
H 6955  8084                      82.0000000   64.00000  22.0%  11.9    6s
H 7018  8063                      80.0000000   64.00000  20.0%  11.8    6s
H 8823  8001                      79.6000000   64.00000  19.6%  12.0    6s
H 8826  7602                      78.3000000   64.00000  18.3%  12.0    7s
H 8830  7225                      78.1000000   64.00000  18.1%  12.0    8s
  8842  7233   71.90000  179   56   78.10000   64.00000  18.1%  12.0   10s
H 8874  6925                      77.3000000   64.00000  17.2%  13.1   11s
H 8939  6624                      77.0000000   64.00000  16.9%  13.0   13s
H 8941  6296                      76.4000000   64.00000  16.2%  13.0   13s
H 8943  5985                      76.1000000   64.00000  15.9%  13.0   13s
H 8947  5689                      75.6000000   64.00000  15.3%  13.0   13s
H 8966  5403                      75.3000000   64.00000  15.0%  13.0   13s
  9490  6207   64.00000   23   60   75.30000   64.00000  15.0%  12.6   15s
H10951  7223                      75.1000000   64.00000  14.8%  11.5   16s
H11665  6565                      74.1000000   64.00000  13.6%  11.1   16s

Cutting planes:
  Gomory: 2
  Cover: 132
  Implied bound: 163
  Projected implied bound: 5
  Clique: 32
  MIR: 21
  Flow cover: 35
  GUB cover: 3
  Zero half: 2
  RLT: 13
  Relax-and-lift: 26

Explored 12040 nodes (133809 simplex iterations) in 16.93 seconds
Thread count was 32 (of 32 available processors)

Solution count 10: 74.1 75.1 75.3 ... 78.3

Solve interrupted
Best objective 7.410000000000e+01, best bound 6.400000000000e+01, gap 13.6302%
